words_hard_train/8279.qaiger
aag 83 15 0 1 68
2
4
8
16
26
34
46
54
70
78
88
96
100
102
122
167
6 2 4
10 8 4
12 9 5
14 11 13
18 15 17
20 6 19
22 14 16
24 21 23
28 13 26
30 12 27
32 29 31
36 33 35
38 32 34
40 37 39
42 25 40
44 43 39
48 31 46
50 30 47
52 49 51
56 53 55
58 52 54
60 57 59
62 44 61
64 45 60
66 63 65
68 67 43
72 51 70
74 50 71
76 73 75
80 76 78
82 65 59
84 80 83
86 68 85
90 75 88
92 74 89
94 91 93
98 94 96
104 100 102
106 101 103
108 105 107
110 98 108
112 86 111
114 24 41
116 3 5
118 19 23
120 117 118
124 121 122
126 119 7
128 124 127
130 115 128
132 77 79
134 132 82
136 108 93
138 109 92
140 137 139
142 99 140
144 135 143
146 130 145
148 112 146
150 95 97
152 141 150
154 153 99
156 151 133
158 140 156
160 81 82
162 158 161
164 154 163
166 148 165
i0 2 y2[1]
i1 1 x2[0]
i2 1 x2[1]
i3 2 y2[2]
i4 1 x2[2]
i5 2 y2[3]
i6 1 x2[3]
i7 2 y2[4]
i8 1 x2[4]
i9 2 y2[5]
i10 1 x2[5]
i11 2 y2[6]
i12 2 y2[7]
i13 1 x2[6]
i14 2 y2[0]
o0 bool[0]
c
simplified
  !=
    add
      -12
      subtract
        2 y2
        << 1
          1 x2
    1
