words_hard_train/8279.qaiger.qdimacs
p cnf 83 205
a 2 35 4 44 13 51 23 0
e 1 3 5 6 7 8 9 10 11 12 14 15 16 17 18 19 20 21 22 24 25 26 27 28 29 30 31 32 33 34 36 37 38 39 40 41 42 43 45 46 47 48 49 50 52 53 54 55 56 57 58 59 60 61 62 63 64 65 66 67 68 69 70 71 72 73 74 75 76 77 78 79 80 81 82 83 0
-1 -2 3 0
1 -3 0
2 -3 0
-4 -2 5 0
4 -5 0
2 -5 0
4 2 6 0
-4 -6 0
-2 -6 0
5 6 7 0
-5 -7 0
-6 -7 0
7 8 9 0
-7 -9 0
-8 -9 0
-3 9 10 0
3 -10 0
-9 -10 0
-7 -8 11 0
7 -11 0
8 -11 0
10 11 12 0
-10 -12 0
-11 -12 0
6 -13 14 0
-6 -14 0
13 -14 0
-6 13 15 0
6 -15 0
-13 -15 0
14 15 16 0
-14 -16 0
-15 -16 0
16 17 18 0
-16 -18 0
-17 -18 0
-16 -17 19 0
16 -19 0
17 -19 0
18 19 20 0
-18 -20 0
-19 -20 0
12 -20 21 0
-12 -21 0
20 -21 0
21 19 22 0
-21 -22 0
-19 -22 0
15 -23 24 0
-15 -24 0
23 -24 0
-15 23 25 0
15 -25 0
-23 -25 0
24 25 26 0
-24 -26 0
-25 -26 0
26 27 28 0
-26 -28 0
-27 -28 0
-26 -27 29 0
26 -29 0
27 -29 0
28 29 30 0
-28 -30 0
-29 -30 0
-22 30 31 0
22 -31 0
-30 -31 0
22 -30 32 0
-22 -32 0
30 -32 0
31 32 33 0
-31 -33 0
-32 -33 0
33 21 34 0
-33 -34 0
-21 -34 0
25 -35 36 0
-25 -36 0
35 -36 0
-25 35 37 0
25 -37 0
-35 -37 0
36 37 38 0
-36 -38 0
-37 -38 0
-38 -39 40 0
38 -40 0
39 -40 0
32 29 41 0
-32 -41 0
-29 -41 0
-40 41 42 0
40 -42 0
-41 -42 0
-34 42 43 0
34 -43 0
-42 -43 0
37 -44 45 0
-37 -45 0
44 -45 0
-37 44 46 0
37 -46 0
-44 -46 0
45 46 47 0
-45 -47 0
-46 -47 0
-47 -48 49 0
47 -49 0
48 -49 0
-50 -51 52 0
50 -52 0
51 -52 0
50 51 53 0
-50 -53 0
-51 -53 0
52 53 54 0
-52 -54 0
-53 -54 0
-49 -54 55 0
49 -55 0
54 -55 0
-43 55 56 0
43 -56 0
-55 -56 0
-12 20 57 0
12 -57 0
-20 -57 0
1 2 58 0
-1 -58 0
-2 -58 0
9 11 59 0
-9 -59 0
-11 -59 0
58 -59 60 0
-58 -60 0
59 -60 0
60 -61 62 0
-60 -62 0
61 -62 0
59 3 63 0
-59 -63 0
-3 -63 0
-62 63 64 0
62 -64 0
-63 -64 0
57 -64 65 0
-57 -65 0
64 -65 0
38 39 66 0
-38 -66 0
-39 -66 0
-66 -41 67 0
66 -67 0
41 -67 0
-54 46 68 0
54 -68 0
-46 -68 0
54 -46 69 0
-54 -69 0
46 -69 0
68 69 70 0
-68 -70 0
-69 -70 0
49 -70 71 0
-49 -71 0
70 -71 0
67 71 72 0
-67 -72 0
-71 -72 0
-65 72 73 0
65 -73 0
-72 -73 0
-56 -73 74 0
56 -74 0
73 -74 0
47 48 75 0
-47 -75 0
-48 -75 0
70 -75 76 0
-70 -76 0
75 -76 0
76 49 77 0
-76 -77 0
-49 -77 0
75 66 78 0
-75 -78 0
-66 -78 0
-70 -78 79 0
70 -79 0
78 -79 0
40 -41 80 0
-40 -80 0
41 -80 0
-79 80 81 0
79 -81 0
-80 -81 0
-77 81 82 0
77 -82 0
-81 -82 0
-74 82 83 0
74 -83 0
-82 -83 0
-83 0
